100 100 100
50
44 95 89
26 70 92
92 86 75
4 12 14
35 42 35
39 66 83
82 71 77
87 100 22
94 77 34
5 82 67
28 68 97
95 39 79
47 38 43
81 28 74
4 85 76
13 75 99
44 73 98
94 37 87
23 91 88
33 78 94
4 70 69
26 100 83
83 86 15
7 94 80
5 76 67
17 83 73
11 92 71
74 74 48
17 41 32
6 77 74
14 89 90
87 51 88
1 87 71
71 84 4
49 89 72
47 66 67
15 81 96
5 74 84
4 80 66
8 81 90
17 100 69
46 8 18
21 70 72
96 30 80
34 67 97
26 86 75
75 83 27
56 97 53
37 21 14
87 52 53
